Version identifier: 12.10.0.0 | 2019-11-26 | 843d4de
CPXPARAM_WorkMem                                 16384
CPXPARAM_MIP_Limits_TreeMemory                   24576
Tried aggregator 2 times.
Aggregator did 45 substitutions.
Reduced MIP has 153 rows, 180 columns, and 645 nonzeros.
Reduced MIP has 180 binaries, 0 generals, 0 SOSs, and 0 indicators.
Presolve time = 0,00 sec. (0,63 ticks)
Found incumbent of value 420,000000 after 0,00 sec. (1,03 ticks)
Probing time = 0,00 sec. (0,21 ticks)
Tried aggregator 1 time.
Detecting symmetries...
MIP Presolve eliminated 45 rows and 0 columns.
MIP Presolve added 90 rows and 0 columns.
Reduced MIP has 198 rows, 180 columns, and 690 nonzeros.
Reduced MIP has 180 binaries, 0 generals, 0 SOSs, and 0 indicators.
Presolve time = 0,00 sec. (0,76 ticks)
Probing time = 0,00 sec. (0,21 ticks)
Clique table members: 435.
MIP emphasis: balance optimality and feasibility.
MIP search method: dynamic search.
Parallel mode: deterministic, using up to 16 threads.
Root relaxation solution time = 0,00 sec. (0,73 ticks)

        Nodes                                         Cuts/
   Node  Left     Objective  IInf  Best Integer    Best Bound    ItCnt     Gap

*     0+    0                          420,0000        0,0000           100,00%
*     0+    0                          240,0000        0,0000           100,00%
*     0+    0                          228,0000        0,0000           100,00%
      0     0      140,0000   133      228,0000      140,0000       79   38,60%
      0     0      140,0000   133      228,0000     Cuts: 132      116   38,60%
      0     0      140,0000   133      228,0000     Cuts: 144      163   38,60%
      0     0      140,0000   133      228,0000     Cuts: 150      227   38,60%
*     0+    0                          223,0000      140,0000            37,22%
*     0+    0                          216,0000      140,0000            35,19%
Detecting symmetries...
      0     2      140,0000   170      216,0000      165,0000      227   23,61%
Elapsed time = 0,07 sec. (26,73 ticks, tree = 0,02 MB, solutions = 5)
*  1469    20      integral     0      215,0000      181,5476    21647   15,56%
*  1512    19      integral     0      214,0000      181,5476    21699   15,16%
   1792    36        cutoff            214,0000      188,0192    18667   12,14%

Clique cuts applied:  68
Cover cuts applied:  145
Mixed integer rounding cuts applied:  2
Zero-half cuts applied:  4
Gomory fractional cuts applied:  1

Root node processing (before b&c):
  Real time             =    0,06 sec. (26,62 ticks)
Parallel b&c, 16 threads:
  Real time             =    0,24 sec. (249,20 ticks)
  Sync time (average)   =    0,12 sec.
  Wait time (average)   =    0,00 sec.
                          ------------
Total (root+branch&cut) =    0,31 sec. (275,82 ticks)
